units			lj

boundary		p p p
atom_style		molecular
read_data		2bodytest.dat



pair_style	log 2
# type 1 is star cores:
# core to core pair interaction:
pair_coeff		1 1 2 1 1
pair_coeff		1 2 2 1 1
pair_coeff		2 2 2 1 1

group			core_1 type 1
group			core_2 type 2


neighbor		0.1 bin
neigh_modify		delay 0 every 1 check yes




timestep		0.001
velocity		all create 1.2 6715 dist gaussian mom yes rot yes units box

fix			move1 core_1 move linear 0.0001 0 0
fix			move2 core_2 move linear -0.0001 0 0


variable		E equal etotal
variable		beta equal temp
fix			E all print 50 "Total Energy: ${E}" file 1_0f_50n_0.0_energy.txt
fix			beta all print 50 "Temp: ${beta}" file 1_0f_50n_0.0_temp.txt

dump			2 all custom 50 dump.test_2body id type x y z vx vy vz fx fy fz

run			20000000
write_restart		restart.test_2body
